
c--------------------------------------------------------------
c	Ferhat Erata
c	CPSC 454/554
c	Tue Nov 26 2019	22:50:32
c--------------------------------------------------------------
c 63 168
c 41 42 1 
c -41 -42 1 
c 41 -42 -1 
c -41 42 -1 
c 1 43 2 
c -1 -43 2 
c 1 -43 -2 
c -1 43 -2 
c 2 44 3 
c -2 -44 3 
c 2 -44 -3 
c -2 44 -3 
c 3 45 4 
c -3 -45 4 
c 3 -45 -4 
c -3 45 -4 
c 4 46 5 
c -4 -46 5 
c 4 -46 -5 
c -4 46 -5 
c 5 47 6 
c -5 -47 6 
c 5 -47 -6 
c -5 47 -6 
c 6 48 7 
c -6 -48 7 
c 6 -48 -7 
c -6 48 -7 
c 7 49 8 
c -7 -49 8 
c 7 -49 -8 
c -7 49 -8 
c 8 50 9 
c -8 -50 9 
c 8 -50 -9 
c -8 50 -9 
c 9 51 10 
c -9 -51 10 
c 9 -51 -10 
c -9 51 -10 
c 10 52 11 
c -10 -52 11 
c 10 -52 -11 
c -10 52 -11 
c 11 53 12 
c -11 -53 12 
c 11 -53 -12 
c -11 53 -12 
c 12 54 13 
c -12 -54 13 
c 12 -54 -13 
c -12 54 -13 
c 13 55 14 
c -13 -55 14 
c 13 -55 -14 
c -13 55 -14 
c 14 56 15 
c -14 -56 15 
c 14 -56 -15 
c -14 56 -15 
c 15 57 16 
c -15 -57 16 
c 15 -57 -16 
c -15 57 -16 
c 16 58 17 
c -16 -58 17 
c 16 -58 -17 
c -16 58 -17 
c 17 59 18 
c -17 -59 18 
c 17 -59 -18 
c -17 59 -18 
c 18 60 19 
c -18 -60 19 
c 18 -60 -19 
c -18 60 -19 
c 19 61 20 
c -19 -61 20 
c 19 -61 -20 
c -19 61 -20 
c 20 62 63 
c -20 -62 63 
c 20 -62 -63 
c -20 62 -63 
c 21 62 63 
c -21 -62 63 
c 21 -62 -63 
c -21 62 -63 
c 22 61 21 
c -22 -61 21 
c 22 -61 -21 
c -22 61 -21 
c 23 60 22 
c -23 -60 22 
c 23 -60 -22 
c -23 60 -22 
c 24 59 23 
c -24 -59 23 
c 24 -59 -23 
c -24 59 -23 
c 25 58 24 
c -25 -58 24 
c 25 -58 -24 
c -25 58 -24 
c 26 57 25 
c -26 -57 25 
c 26 -57 -25 
c -26 57 -25 
c 27 56 26 
c -27 -56 26 
c 27 -56 -26 
c -27 56 -26 
c 28 55 27 
c -28 -55 27 
c 28 -55 -27 
c -28 55 -27 
c 29 54 28 
c -29 -54 28 
c 29 -54 -28 
c -29 54 -28 
c 30 53 29 
c -30 -53 29 
c 30 -53 -29 
c -30 53 -29 
c 31 52 30 
c -31 -52 30 
c 31 -52 -30 
c -31 52 -30 
c 32 51 31 
c -32 -51 31 
c 32 -51 -31 
c -32 51 -31 
c 33 50 32 
c -33 -50 32 
c 33 -50 -32 
c -33 50 -32 
c 34 49 33 
c -34 -49 33 
c 34 -49 -33 
c -34 49 -33 
c 35 48 34 
c -35 -48 34 
c 35 -48 -34 
c -35 48 -34 
c 36 47 35 
c -36 -47 35 
c 36 -47 -35 
c -36 47 -35 
c 37 46 36 
c -37 -46 36 
c 37 -46 -36 
c -37 46 -36 
c 38 45 37 
c -38 -45 37 
c 38 -45 -37 
c -38 45 -37 
c 39 44 38 
c -39 -44 38 
c 39 -44 -38 
c -39 44 -38 
c 40 43 39 
c -40 -43 39 
c 40 -43 -39 
c -40 43 -39 
c 41 42 -40 
c -41 -42 -40 
c 41 -42 40 
c -41 42 40 
s UNSATISFIABLE
c--------------------------------------------------------------
c statistics of ../../bench3/dubois21.cnf:
c [ mem_used: 1646, conflicts: 0, max_lemmas: 2000 ]
c--------------------------------------------------------------
c	Normal termination.
